; benchmark generated from python API
(set-info :status unknown)
(declare-datatypes ((RealState 0)) (((RMk1 (rval1 Real)) (RMk2 (rval2 Real)))))
 (declare-fun ep () Real)
(declare-fun V () Real)
(declare-fun v2uscore1dollarskuscore846 () Real)
(declare-fun v1uscore1dollarskuscore846 () Real)
(declare-fun t3268uscore0 () Real)
(declare-fun x1uscore1dollarskuscore580 () Real)
(declare-fun xI1 () Real)
(declare-fun A () Real)
(declare-fun v2 () Real)
(declare-fun v1 () Real)
(declare-fun B () Real)
(declare-fun x2 () Real)
(declare-fun xI2 () Real)
(declare-fun I2 () Real)
(declare-fun x1 () Real)
(declare-fun I1 () Real)
(declare-fun I2uscore1dollarskuscore846 () Real)
(declare-fun I1uscore1dollarskuscore846 () Real)
(declare-fun x2uscore1dollarskuscore603 () Real)
(assert
 (let (($x189 (exists ((ts3268uscore0_st RealState) (val!170 Real) )(let (($x122 (or (= 2.0 2.0) (= 1.0 2.0))))
 (let (($x195 (and (>= v1uscore1dollarskuscore846 0.0) (<= v1uscore1dollarskuscore846 V))))
 (let (($x170 (and (and $x195 (>= v2uscore1dollarskuscore846 0.0)) (<= v2uscore1dollarskuscore846 V))))
 (let (($x75 (=> (and (<= 0.0 (rval2 ts3268uscore0_st)) (<= (rval2 ts3268uscore0_st) t3268uscore0)) (and $x170 (<= (+ (rval2 ts3268uscore0_st) 0.0) ep)))))
 (let (($x218 (>= t3268uscore0 0.0)))
 (let (($x217 (= xI1 x1uscore1dollarskuscore580)))
 (let (($x201 (and (= v2uscore1dollarskuscore846 V) (= xI2 x2uscore1dollarskuscore603))))
 (let (($x146 (and (and $x201 (= v1uscore1dollarskuscore846 0.0)) (= I2uscore1dollarskuscore846 0.0))))
 (let (($x43 (and (and $x146 (= I1uscore1dollarskuscore846 1.0)) (< xI1 x1uscore1dollarskuscore580))))
 (let (($x192 (and (and $x43 (= I2uscore1dollarskuscore846 2.0)) (= I1 2.0))))
 (let (($x168 (and (and (and $x192 (< xI1 x1)) (= I2 2.0)) (< xI2 x2))))
 (let (($x90 (and (and (and $x168 (> B 0.0)) (>= v1 0.0)) (<= v1 V))))
 (let (($x219 (and (and (and $x90 (>= v2 0.0)) (<= v2 V)) (>= A 0.0))))
 (let (($x106 (and (and $x219 (> V 0.0)) (> ep 0.0))))
 (let (($x94 (not (= ts3268uscore0_st (RMk1 val!170)))))
 (and $x94 (=> $x106 (or $x217 (=> (and $x218 $x75) $x122))))))))))))))))))))
 ))
 (not $x189)))
(check-sat)
